c SAT instance with 45 variables
c Contains multiple interconnected groups of constraints
c Generated by Claude
p cnf 45 58
1 2 3 0
-1 4 5 0
2 -4 6 0
-3 -5 -6 0
7 8 9 10 0
-7 11 12 0
-8 -11 13 0
-9 -12 -13 0
14 15 16 17 0
-14 18 19 0
-15 -18 20 0
-16 -19 -20 0
21 22 23 24 0
-21 25 26 0
-22 -25 27 0
-23 -26 -27 0
28 29 30 0
-28 31 32 0
-29 -31 33 0
-30 -32 -33 0
34 35 36 0
-34 37 38 0
-35 -37 39 0
-36 -38 -39 0
40 41 42 0
-40 43 44 0
-41 -43 45 0
-42 -44 -45 0
1 -7 14 0
2 -8 15 0
3 -9 16 0
4 -10 17 0
5 -11 18 0
6 -12 19 0
7 -13 20 0
8 -14 21 0
9 -15 22 0
10 -16 23 0
11 -17 24 0
12 -18 25 0
13 -19 26 0
14 -20 27 0
15 -21 28 0
16 -22 29 0
17 -23 30 0
18 -24 31 0
19 -25 32 0
20 -26 33 0
21 -27 34 0
22 -28 35 0
23 -29 36 0
24 -30 37 0
25 -31 38 0
26 -32 39 0
27 -33 40 0
28 -34 41 0
29 -35 42 0
30 -36 43 0